p cnf 373 892
c weights 1.0 1.0 2.718281828459045 0.36787944117144233 2.718281828459045 0.36787944117144233 2.718281828459045 0.36787944117144233 2.718281828459045 0.36787944117144233 1.0 1.0 2.718281828459045 0.36787944117144233 2.718281828459045 0.36787944117144233 1.0 1.0 2.718281828459045 0.36787944117144233 2.718281828459045 0.36787944117144233 1.0 1.0 2.718281828459045 0.36787944117144233 2.718281828459045 0.36787944117144233 2.718281828459045 0.36787944117144233 2.718281828459045 0.36787944117144233 2.718281828459045 0.36787944117144233 1.0 1.0 2.718281828459045 0.36787944117144233 2.718281828459045 0.36787944117144233 2.718281828459045 0.36787944117144233 2.718281828459045 0.36787944117144233 2.718281828459045 0.36787944117144233 2.718281828459045 0.36787944117144233 1.0 1.0 2.718281828459045 0.36787944117144233 2.718281828459045 0.36787944117144233 1.0 1.0 2.718281828459045 0.36787944117144233 1.0 1.0 2.718281828459045 0.36787944117144233 1.0 1.0 2.718281828459045 0.36787944117144233 2.718281828459045 0.36787944117144233 2.718281828459045 0.36787944117144233 2.718281828459045 0.36787944117144233 2.718281828459045 0.36787944117144233 1.0 1.0 2.718281828459045 0.36787944117144233 1.0 1.0 2.718281828459045 0.36787944117144233 2.718281828459045 0.36787944117144233 2.718281828459045 0.36787944117144233 2.718281828459045 0.36787944117144233 1.0 1.0 2.718281828459045 0.36787944117144233 2.718281828459045 0.36787944117144233 2.718281828459045 0.36787944117144233 2.718281828459045 0.36787944117144233 1.0 1.0 2.718281828459045 0.36787944117144233 2.718281828459045 0.36787944117144233 2.718281828459045 0.36787944117144233 2.718281828459045 0.36787944117144233 1.0 1.0 2.718281828459045 0.36787944117144233 2.718281828459045 0.36787944117144233 2.718281828459045 0.36787944117144233 1.0 1.0 2.718281828459045 0.36787944117144233 2.718281828459045 0.36787944117144233 1.0 1.0 1.0 1.0 2.718281828459045 0.36787944117144233 2.718281828459045 0.36787944117144233 2.718281828459045 0.36787944117144233 2.718281828459045 0.36787944117144233 2.718281828459045 0.36787944117144233 2.718281828459045 0.36787944117144233 2.718281828459045 0.36787944117144233 1.0 1.0 2.718281828459045 0.36787944117144233 2.718281828459045 0.36787944117144233 2.718281828459045 0.36787944117144233 2.718281828459045 0.36787944117144233 2.718281828459045 0.36787944117144233 1.0 1.0 2.718281828459045 0.36787944117144233 2.718281828459045 0.36787944117144233 1.0 1.0 1.0 1.0 2.718281828459045 0.36787944117144233 2.718281828459045 0.36787944117144233 2.718281828459045 0.36787944117144233 2.718281828459045 0.36787944117144233 1.0 1.0 2.718281828459045 0.36787944117144233 2.718281828459045 0.36787944117144233 2.718281828459045 0.36787944117144233 1.0 1.0 2.718281828459045 0.36787944117144233 2.718281828459045 0.36787944117144233 1.0 1.0 2.718281828459045 0.36787944117144233 1.0 1.0 2.718281828459045 0.36787944117144233 2.718281828459045 0.36787944117144233 2.718281828459045 0.36787944117144233 1.0 1.0 2.718281828459045 0.36787944117144233 2.718281828459045 0.36787944117144233 2.718281828459045 0.36787944117144233 1.0 1.0 2.718281828459045 0.36787944117144233 2.718281828459045 0.36787944117144233 2.718281828459045 0.36787944117144233 2.718281828459045 0.36787944117144233 2.718281828459045 0.36787944117144233 1.0 1.0 1.0 1.0 2.718281828459045 0.36787944117144233 1.0 1.0 1.0 1.0 2.718281828459045 0.36787944117144233 1.0 1.0 2.718281828459045 0.36787944117144233 2.718281828459045 0.36787944117144233 1.0 1.0 2.718281828459045 0.36787944117144233 2.718281828459045 0.36787944117144233 1.0 1.0 2.718281828459045 0.36787944117144233 2.718281828459045 0.36787944117144233 2.718281828459045 0.36787944117144233 2.718281828459045 0.36787944117144233 1.0 1.0 2.718281828459045 0.36787944117144233 2.718281828459045 0.36787944117144233 1.0 1.0 2.718281828459045 0.36787944117144233 1.0 1.0 2.718281828459045 0.36787944117144233 1.0 1.0 2.718281828459045 0.36787944117144233 2.718281828459045 0.36787944117144233 2.718281828459045 0.36787944117144233 1.0 1.0 1.0 1.0 2.718281828459045 0.36787944117144233 2.718281828459045 0.36787944117144233 2.718281828459045 0.36787944117144233 1.0 1.0 2.718281828459045 0.36787944117144233 2.718281828459045 0.36787944117144233 1.0 1.0 2.718281828459045 0.36787944117144233 2.718281828459045 0.36787944117144233 1.0 1.0 2.718281828459045 0.36787944117144233 2.718281828459045 0.36787944117144233 2.718281828459045 0.36787944117144233 2.718281828459045 0.36787944117144233 1.0 1.0 2.718281828459045 0.36787944117144233 2.718281828459045 0.36787944117144233 2.718281828459045 0.36787944117144233 1.0 1.0 2.718281828459045 0.36787944117144233 2.718281828459045 0.36787944117144233 1.0 1.0 2.718281828459045 0.36787944117144233 2.718281828459045 0.36787944117144233 1.0 1.0 2.718281828459045 0.36787944117144233 2.718281828459045 0.36787944117144233 1.0 1.0 2.718281828459045 0.36787944117144233 1.0 1.0 2.718281828459045 0.36787944117144233 2.718281828459045 0.36787944117144233 1.0 1.0 2.718281828459045 0.36787944117144233 2.718281828459045 0.36787944117144233 2.718281828459045 0.36787944117144233 2.718281828459045 0.36787944117144233 1.0 1.0 1.0 1.0 2.718281828459045 0.36787944117144233 1.0 1.0 2.718281828459045 0.36787944117144233 2.718281828459045 0.36787944117144233 2.718281828459045 0.36787944117144233 1.0 1.0 2.718281828459045 0.36787944117144233 2.718281828459045 0.36787944117144233 2.718281828459045 0.36787944117144233 2.718281828459045 0.36787944117144233 1.0 1.0 2.718281828459045 0.36787944117144233 1.0 1.0 2.718281828459045 0.36787944117144233 2.718281828459045 0.36787944117144233 1.0 1.0 2.718281828459045 0.36787944117144233 2.718281828459045 0.36787944117144233 2.718281828459045 0.36787944117144233 2.718281828459045 0.36787944117144233 1.0 1.0 2.718281828459045 0.36787944117144233 1.0 1.0 1.0 1.0 2.718281828459045 0.36787944117144233 1.0 1.0 1.0 1.0 1.0 1.0 2.718281828459045 0.36787944117144233 2.718281828459045 0.36787944117144233 1.0 1.0 2.718281828459045 0.36787944117144233 2.718281828459045 0.36787944117144233 2.718281828459045 0.36787944117144233 2.718281828459045 0.36787944117144233 1.0 1.0 1.0 1.0 2.718281828459045 0.36787944117144233 2.718281828459045 0.36787944117144233 2.718281828459045 0.36787944117144233 1.0 1.0 2.718281828459045 0.36787944117144233 2.718281828459045 0.36787944117144233 1.0 1.0 1.0 1.0 1.0 1.0 2.718281828459045 0.36787944117144233 1.0 1.0 2.718281828459045 0.36787944117144233 2.718281828459045 0.36787944117144233 1.0 1.0 2.718281828459045 0.36787944117144233 1.0 1.0 2.718281828459045 0.36787944117144233 2.718281828459045 0.36787944117144233 2.718281828459045 0.36787944117144233 1.0 1.0 1.0 1.0 2.718281828459045 0.36787944117144233 2.718281828459045 0.36787944117144233 2.718281828459045 0.36787944117144233 1.0 1.0 2.718281828459045 0.36787944117144233 2.718281828459045 0.36787944117144233 1.0 1.0 2.718281828459045 0.36787944117144233 1.0 1.0 2.718281828459045 0.36787944117144233 1.0 1.0 1.0 1.0 2.718281828459045 0.36787944117144233 1.0 1.0 2.718281828459045 0.36787944117144233 2.718281828459045 0.36787944117144233 2.718281828459045 0.36787944117144233 1.0 1.0 1.0 1.0 2.718281828459045 0.36787944117144233 2.718281828459045 0.36787944117144233 1.0 1.0 2.718281828459045 0.36787944117144233 1.0 1.0 2.718281828459045 0.36787944117144233 2.718281828459045 0.36787944117144233 1.0 1.0 2.718281828459045 0.36787944117144233 2.718281828459045 0.36787944117144233 1.0 1.0 1.0 1.0 2.718281828459045 0.36787944117144233 2.718281828459045 0.36787944117144233 2.718281828459045 0.36787944117144233 1.0 1.0 2.718281828459045 0.36787944117144233 2.718281828459045 0.36787944117144233 1.0 1.0 1.0 1.0 1.0 1.0 2.718281828459045 0.36787944117144233 1.0 1.0 2.718281828459045 0.36787944117144233 1.0 1.0 2.718281828459045 0.36787944117144233 2.718281828459045 0.36787944117144233 1.0 1.0 2.718281828459045 0.36787944117144233 2.718281828459045 0.36787944117144233 2.718281828459045 0.36787944117144233 1.0 1.0 2.718281828459045 0.36787944117144233 1.0 1.0 1.0 1.0 1.0 1.0 2.718281828459045 0.36787944117144233 1.0 1.0 2.718281828459045 0.36787944117144233 2.718281828459045 0.36787944117144233 2.718281828459045 0.36787944117144233 2.718281828459045 0.36787944117144233 1.0 1.0 1.0 1.0 1.0 1.0 1.0 1.0 1.0 1.0 1.0 1.0 2.718281828459045 0.36787944117144233 2.718281828459045 0.36787944117144233 1.0 1.0 2.718281828459045 0.36787944117144233 2.718281828459045 0.36787944117144233 2.718281828459045 0.36787944117144233 1.0 1.0 2.718281828459045 0.36787944117144233 2.718281828459045 0.36787944117144233 1.0 1.0 2.718281828459045 0.36787944117144233 2.718281828459045 0.36787944117144233 1.0 1.0 2.718281828459045 0.36787944117144233 1.0 1.0 2.718281828459045 0.36787944117144233 1.0 1.0 2.718281828459045 0.36787944117144233 1.0 1.0 1.0 1.0 2.718281828459045 0.36787944117144233 1.0 1.0 2.718281828459045 0.36787944117144233 1.0 1.0 2.718281828459045 0.36787944117144233 1.0 1.0 2.718281828459045 0.36787944117144233 1.0 1.0 1.0 1.0 1.0 1.0 2.718281828459045 0.36787944117144233 2.718281828459045 0.36787944117144233 2.718281828459045 0.36787944117144233 1.0 1.0 2.718281828459045 0.36787944117144233 1.0 1.0 1.0 1.0 1.0 1.0 1.0 1.0 2.718281828459045 0.36787944117144233 2.718281828459045 0.36787944117144233 1.0 1.0 1.0 1.0 1.0 1.0 2.718281828459045 0.36787944117144233 1.0 1.0 2.718281828459045 0.36787944117144233 2.718281828459045 0.36787944117144233 1.0 1.0 1.0 1.0 2.718281828459045 0.36787944117144233 1.0 1.0 1.0 1.0 2.718281828459045 0.36787944117144233 1.0 1.0 1.0 1.0 1.0 1.0 1.0 1.0 1.0 1.0 1.0 1.0 1.0 1.0 1.0 1.0 1.0 1.0 1.0 1.0 1.0 1.0 1.0 1.0 1.0 1.0 1.0 1.0 1.0 1.0 1.0 1.0 1.0 1.0
2 1 80 0
2 -1 -80 0
-2 1 -80 0
-2 -1 80 0
3 1 118 0
3 -1 -118 0
-3 1 -118 0
-3 -1 118 0
4 1 326 0
4 -1 -326 0
-4 1 -326 0
-4 -1 326 0
5 1 362 0
5 -1 -362 0
-5 1 -362 0
-5 -1 362 0
7 6 153 0
7 -6 -153 0
-7 6 -153 0
-7 -6 153 0
8 6 160 0
8 -6 -160 0
-8 6 -160 0
-8 -6 160 0
10 9 40 0
10 -9 -40 0
-10 9 -40 0
-10 -9 40 0
11 9 163 0
11 -9 -163 0
-11 9 -163 0
-11 -9 163 0
13 12 157 0
13 -12 -157 0
-13 12 -157 0
-13 -12 157 0
14 12 242 0
14 -12 -242 0
-14 12 -242 0
-14 -12 242 0
15 12 254 0
15 -12 -254 0
-15 12 -254 0
-15 -12 254 0
16 12 259 0
16 -12 -259 0
-16 12 -259 0
-16 -12 259 0
17 12 302 0
17 -12 -302 0
-17 12 -302 0
-17 -12 302 0
19 18 81 0
19 -18 -81 0
-19 18 -81 0
-19 -18 81 0
20 18 201 0
20 -18 -201 0
-20 18 -201 0
-20 -18 201 0
21 18 213 0
21 -18 -213 0
-21 18 -213 0
-21 -18 213 0
22 18 288 0
22 -18 -288 0
-22 18 -288 0
-22 -18 288 0
23 18 309 0
23 -18 -309 0
-23 18 -309 0
-23 -18 309 0
24 18 361 0
24 -18 -361 0
-24 18 -361 0
-24 -18 361 0
26 25 168 0
26 -25 -168 0
-26 25 -168 0
-26 -25 168 0
27 25 200 0
27 -25 -200 0
-27 25 -200 0
-27 -25 200 0
29 28 204 0
29 -28 -204 0
-29 28 -204 0
-29 -28 204 0
31 30 352 0
31 -30 -352 0
-31 30 -352 0
-31 -30 352 0
33 32 103 0
33 -32 -103 0
-33 32 -103 0
-33 -32 103 0
34 32 163 0
34 -32 -163 0
-34 32 -163 0
-34 -32 163 0
35 32 305 0
35 -32 -305 0
-35 32 -305 0
-35 -32 305 0
36 32 359 0
36 -32 -359 0
-36 32 -359 0
-36 -32 359 0
37 32 360 0
37 -32 -360 0
-37 32 -360 0
-37 -32 360 0
39 38 246 0
39 -38 -246 0
-39 38 -246 0
-39 -38 246 0
41 40 138 0
41 -40 -138 0
-41 40 -138 0
-41 -40 138 0
42 40 208 0
42 -40 -208 0
-42 40 -208 0
-42 -40 208 0
43 40 253 0
43 -40 -253 0
-43 40 -253 0
-43 -40 253 0
44 40 257 0
44 -40 -257 0
-44 40 -257 0
-44 -40 257 0
46 45 145 0
46 -45 -145 0
-46 45 -145 0
-46 -45 145 0
47 45 188 0
47 -45 -188 0
-47 45 -188 0
-47 -45 188 0
48 45 273 0
48 -45 -273 0
-48 45 -273 0
-48 -45 273 0
49 45 341 0
49 -45 -341 0
-49 45 -341 0
-49 -45 341 0
51 50 93 0
51 -50 -93 0
-51 50 -93 0
-51 -50 93 0
52 50 166 0
52 -50 -166 0
-52 50 -166 0
-52 -50 166 0
53 50 188 0
53 -50 -188 0
-53 50 -188 0
-53 -50 188 0
54 50 274 0
54 -50 -274 0
-54 50 -274 0
-54 -50 274 0
56 55 131 0
56 -55 -131 0
-56 55 -131 0
-56 -55 131 0
57 55 360 0
57 -55 -360 0
-57 55 -360 0
-57 -55 360 0
58 55 362 0
58 -55 -362 0
-58 55 -362 0
-58 -55 362 0
60 59 118 0
60 -59 -118 0
-60 59 -118 0
-60 -59 118 0
61 59 228 0
61 -59 -228 0
-61 59 -228 0
-61 -59 228 0
64 63 166 0
64 -63 -166 0
-64 63 -166 0
-64 -63 166 0
65 63 213 0
65 -63 -213 0
-65 63 -213 0
-65 -63 213 0
66 63 341 0
66 -63 -341 0
-66 63 -341 0
-66 -63 341 0
67 63 359 0
67 -63 -359 0
-67 63 -359 0
-67 -63 359 0
68 63 362 0
68 -63 -362 0
-68 63 -362 0
-68 -63 362 0
69 63 363 0
69 -63 -363 0
-69 63 -363 0
-69 -63 363 0
70 63 367 0
70 -63 -367 0
-70 63 -367 0
-70 -63 367 0
72 71 138 0
72 -71 -138 0
-72 71 -138 0
-72 -71 138 0
73 71 148 0
73 -71 -148 0
-73 71 -148 0
-73 -71 148 0
74 71 225 0
74 -71 -225 0
-74 71 -225 0
-74 -71 225 0
75 71 341 0
75 -71 -341 0
-75 71 -341 0
-75 -71 341 0
76 71 369 0
76 -71 -369 0
-76 71 -369 0
-76 -71 369 0
78 77 249 0
78 -77 -249 0
-78 77 -249 0
-78 -77 249 0
79 77 322 0
79 -77 -322 0
-79 77 -322 0
-79 -77 322 0
82 81 257 0
82 -81 -257 0
-82 81 -257 0
-82 -81 257 0
83 81 302 0
83 -81 -302 0
-83 81 -302 0
-83 -81 302 0
84 81 344 0
84 -81 -344 0
-84 81 -344 0
-84 -81 344 0
85 81 359 0
85 -81 -359 0
-85 81 -359 0
-85 -81 359 0
87 86 133 0
87 -86 -133 0
-87 86 -133 0
-87 -86 133 0
88 86 302 0
88 -86 -302 0
-88 86 -302 0
-88 -86 302 0
89 86 321 0
89 -86 -321 0
-89 86 -321 0
-89 -86 321 0
91 90 190 0
91 -90 -190 0
-91 90 -190 0
-91 -90 190 0
92 90 265 0
92 -90 -265 0
-92 90 -265 0
-92 -90 265 0
94 93 228 0
94 -93 -228 0
-94 93 -228 0
-94 -93 228 0
96 95 121 0
96 -95 -121 0
-96 95 -121 0
-96 -95 121 0
97 95 138 0
97 -95 -138 0
-97 95 -138 0
-97 -95 138 0
98 95 290 0
98 -95 -290 0
-98 95 -290 0
-98 -95 290 0
100 99 235 0
100 -99 -235 0
-100 99 -235 0
-100 -99 235 0
101 99 315 0
101 -99 -315 0
-101 99 -315 0
-101 -99 315 0
102 99 366 0
102 -99 -366 0
-102 99 -366 0
-102 -99 366 0
104 103 131 0
104 -103 -131 0
-104 103 -131 0
-104 -103 131 0
105 103 301 0
105 -103 -301 0
-105 103 -301 0
-105 -103 301 0
106 103 305 0
106 -103 -305 0
-106 103 -305 0
-106 -103 305 0
107 103 309 0
107 -103 -309 0
-107 103 -309 0
-107 -103 309 0
108 103 355 0
108 -103 -355 0
-108 103 -355 0
-108 -103 355 0
111 110 193 0
111 -110 -193 0
-111 110 -193 0
-111 -110 193 0
114 113 300 0
114 -113 -300 0
-114 113 -300 0
-114 -113 300 0
116 115 225 0
116 -115 -225 0
-116 115 -225 0
-116 -115 225 0
117 115 273 0
117 -115 -273 0
-117 115 -273 0
-117 -115 273 0
119 118 129 0
119 -118 -129 0
-119 118 -129 0
-119 -118 129 0
120 118 266 0
120 -118 -266 0
-120 118 -266 0
-120 -118 266 0
122 121 204 0
122 -121 -204 0
-122 121 -204 0
-122 -121 204 0
123 121 221 0
123 -121 -221 0
-123 121 -221 0
-123 -121 221 0
124 121 330 0
124 -121 -330 0
-124 121 -330 0
-124 -121 330 0
125 121 357 0
125 -121 -357 0
-125 121 -357 0
-125 -121 357 0
127 126 208 0
127 -126 -208 0
-127 126 -208 0
-127 -126 208 0
128 126 324 0
128 -126 -324 0
-128 126 -324 0
-128 -126 324 0
130 129 319 0
130 -129 -319 0
-130 129 -319 0
-130 -129 319 0
132 131 153 0
132 -131 -153 0
-132 131 -153 0
-132 -131 153 0
134 133 190 0
134 -133 -190 0
-134 133 -190 0
-134 -133 190 0
135 133 234 0
135 -133 -234 0
-135 133 -234 0
-135 -133 234 0
136 133 348 0
136 -133 -348 0
-136 133 -348 0
-136 -133 348 0
139 138 203 0
139 -138 -203 0
-139 138 -203 0
-139 -138 203 0
140 138 222 0
140 -138 -222 0
-140 138 -222 0
-140 -138 222 0
141 138 273 0
141 -138 -273 0
-141 138 -273 0
-141 -138 273 0
143 142 299 0
143 -142 -299 0
-143 142 -299 0
-143 -142 299 0
144 142 336 0
144 -142 -336 0
-144 142 -336 0
-144 -142 336 0
146 145 299 0
146 -145 -299 0
-146 145 -299 0
-146 -145 299 0
147 145 359 0
147 -145 -359 0
-147 145 -359 0
-147 -145 359 0
149 148 176 0
149 -148 -176 0
-149 148 -176 0
-149 -148 176 0
150 148 188 0
150 -148 -188 0
-150 148 -188 0
-150 -148 188 0
151 148 244 0
151 -148 -244 0
-151 148 -244 0
-151 -148 244 0
152 148 305 0
152 -148 -305 0
-152 148 -305 0
-152 -148 305 0
154 153 218 0
154 -153 -218 0
-154 153 -218 0
-154 -153 218 0
155 153 275 0
155 -153 -275 0
-155 153 -275 0
-155 -153 275 0
156 153 363 0
156 -153 -363 0
-156 153 -363 0
-156 -153 363 0
158 157 321 0
158 -157 -321 0
-158 157 -321 0
-158 -157 321 0
159 157 357 0
159 -157 -357 0
-159 157 -357 0
-159 -157 357 0
161 160 200 0
161 -160 -200 0
-161 160 -200 0
-161 -160 200 0
162 160 341 0
162 -160 -341 0
-162 160 -341 0
-162 -160 341 0
164 163 321 0
164 -163 -321 0
-164 163 -321 0
-164 -163 321 0
165 163 338 0
165 -163 -338 0
-165 163 -338 0
-165 -163 338 0
167 166 225 0
167 -166 -225 0
-167 166 -225 0
-167 -166 225 0
169 168 352 0
169 -168 -352 0
-169 168 -352 0
-169 -168 352 0
170 168 366 0
170 -168 -366 0
-170 168 -366 0
-170 -168 366 0
172 171 289 0
172 -171 -289 0
-172 171 -289 0
-172 -171 289 0
173 171 301 0
173 -171 -301 0
-173 171 -301 0
-173 -171 301 0
174 171 351 0
174 -171 -351 0
-174 171 -351 0
-174 -171 351 0
175 171 373 0
175 -171 -373 0
-175 171 -373 0
-175 -171 373 0
178 177 301 0
178 -177 -301 0
-178 177 -301 0
-178 -177 301 0
180 179 183 0
180 -179 -183 0
-180 179 -183 0
-180 -179 183 0
181 179 200 0
181 -179 -200 0
-181 179 -200 0
-181 -179 200 0
182 179 246 0
182 -179 -246 0
-182 179 -246 0
-182 -179 246 0
184 183 234 0
184 -183 -234 0
-184 183 -234 0
-184 -183 234 0
185 183 288 0
185 -183 -288 0
-185 183 -288 0
-185 -183 288 0
186 183 330 0
186 -183 -330 0
-186 183 -330 0
-186 -183 330 0
187 183 346 0
187 -183 -346 0
-187 183 -346 0
-187 -183 346 0
189 188 305 0
189 -188 -305 0
-189 188 -305 0
-189 -188 305 0
191 190 253 0
191 -190 -253 0
-191 190 -253 0
-191 -190 253 0
192 190 364 0
192 -190 -364 0
-192 190 -364 0
-192 -190 364 0
194 193 221 0
194 -193 -221 0
-194 193 -221 0
-194 -193 221 0
195 193 319 0
195 -193 -319 0
-195 193 -319 0
-195 -193 319 0
196 193 328 0
196 -193 -328 0
-196 193 -328 0
-196 -193 328 0
197 193 358 0
197 -193 -358 0
-197 193 -358 0
-197 -193 358 0
199 198 338 0
199 -198 -338 0
-199 198 -338 0
-199 -198 338 0
202 201 275 0
202 -201 -275 0
-202 201 -275 0
-202 -201 275 0
206 205 213 0
206 -205 -213 0
-206 205 -213 0
-206 -205 213 0
207 205 351 0
207 -205 -351 0
-207 205 -351 0
-207 -205 351 0
209 208 254 0
209 -208 -254 0
-209 208 -254 0
-209 -208 254 0
210 208 331 0
210 -208 -331 0
-210 208 -331 0
-210 -208 331 0
211 208 361 0
211 -208 -361 0
-211 208 -361 0
-211 -208 361 0
212 208 367 0
212 -208 -367 0
-212 208 -367 0
-212 -208 367 0
215 214 259 0
215 -214 -259 0
-215 214 -259 0
-215 -214 259 0
216 214 339 0
216 -214 -339 0
-216 214 -339 0
-216 -214 339 0
217 214 345 0
217 -214 -345 0
-217 214 -345 0
-217 -214 345 0
219 218 234 0
219 -218 -234 0
-219 218 -234 0
-219 -218 234 0
220 218 274 0
220 -218 -274 0
-220 218 -274 0
-220 -218 274 0
224 223 370 0
224 -223 -370 0
-224 223 -370 0
-224 -223 370 0
226 225 247 0
226 -225 -247 0
-226 225 -247 0
-226 -225 247 0
227 225 373 0
227 -225 -373 0
-227 225 -373 0
-227 -225 373 0
229 228 270 0
229 -228 -270 0
-229 228 -270 0
-229 -228 270 0
231 230 254 0
231 -230 -254 0
-231 230 -254 0
-231 -230 254 0
232 230 279 0
232 -230 -279 0
-232 230 -279 0
-232 -230 279 0
233 230 299 0
233 -230 -299 0
-233 230 -299 0
-233 -230 299 0
236 235 277 0
236 -235 -277 0
-236 235 -277 0
-236 -235 277 0
237 235 321 0
237 -235 -321 0
-237 235 -321 0
-237 -235 321 0
238 235 338 0
238 -235 -338 0
-238 235 -338 0
-238 -235 338 0
240 239 282 0
240 -239 -282 0
-240 239 -282 0
-240 -239 282 0
241 239 341 0
241 -239 -341 0
-241 239 -341 0
-241 -239 341 0
243 242 332 0
243 -242 -332 0
-243 242 -332 0
-243 -242 332 0
245 244 289 0
245 -244 -289 0
-245 244 -289 0
-245 -244 289 0
248 247 297 0
248 -247 -297 0
-248 247 -297 0
-248 -247 297 0
250 249 288 0
250 -249 -288 0
-250 249 -288 0
-250 -249 288 0
251 249 345 0
251 -249 -345 0
-251 249 -345 0
-251 -249 345 0
252 249 371 0
252 -249 -371 0
-252 249 -371 0
-252 -249 371 0
255 254 317 0
255 -254 -317 0
-255 254 -317 0
-255 -254 317 0
256 254 362 0
256 -254 -362 0
-256 254 -362 0
-256 -254 362 0
258 257 363 0
258 -257 -363 0
-258 257 -363 0
-258 -257 363 0
260 259 339 0
260 -259 -339 0
-260 259 -339 0
-260 -259 339 0
261 259 364 0
261 -259 -364 0
-261 259 -364 0
-261 -259 364 0
263 262 340 0
263 -262 -340 0
-263 262 -340 0
-263 -262 340 0
264 262 361 0
264 -262 -361 0
-264 262 -361 0
-264 -262 361 0
267 266 315 0
267 -266 -315 0
-267 266 -315 0
-267 -266 315 0
268 266 324 0
268 -266 -324 0
-268 266 -324 0
-268 -266 324 0
269 266 366 0
269 -266 -366 0
-269 266 -366 0
-269 -266 366 0
271 270 312 0
271 -270 -312 0
-271 270 -312 0
-271 -270 312 0
272 270 351 0
272 -270 -351 0
-272 270 -351 0
-272 -270 351 0
276 275 340 0
276 -275 -340 0
-276 275 -340 0
-276 -275 340 0
278 277 354 0
278 -277 -354 0
-278 277 -354 0
-278 -277 354 0
280 279 326 0
280 -279 -326 0
-280 279 -326 0
-280 -279 326 0
281 279 360 0
281 -279 -360 0
-281 279 -360 0
-281 -279 360 0
283 282 309 0
283 -282 -309 0
-283 282 -309 0
-283 -282 309 0
284 282 341 0
284 -282 -341 0
-284 282 -341 0
-284 -282 341 0
285 282 360 0
285 -282 -360 0
-285 282 -360 0
-285 -282 360 0
287 286 292 0
287 -286 -292 0
-287 286 -292 0
-287 -286 292 0
291 290 338 0
291 -290 -338 0
-291 290 -338 0
-291 -290 338 0
293 292 312 0
293 -292 -312 0
-293 292 -312 0
-293 -292 312 0
294 292 346 0
294 -292 -346 0
-294 292 -346 0
-294 -292 346 0
295 292 355 0
295 -292 -355 0
-295 292 -355 0
-295 -292 355 0
296 292 362 0
296 -292 -362 0
-296 292 -362 0
-296 -292 362 0
303 302 331 0
303 -302 -331 0
-303 302 -331 0
-303 -302 331 0
304 302 354 0
304 -302 -354 0
-304 302 -354 0
-304 -302 354 0
306 305 317 0
306 -305 -317 0
-306 305 -317 0
-306 -305 317 0
307 305 354 0
307 -305 -354 0
-307 305 -354 0
-307 -305 354 0
308 305 371 0
308 -305 -371 0
-308 305 -371 0
-308 -305 371 0
310 309 354 0
310 -309 -354 0
-310 309 -354 0
-310 -309 354 0
311 309 366 0
311 -309 -366 0
-311 309 -366 0
-311 -309 366 0
313 312 332 0
313 -312 -332 0
-313 312 -332 0
-313 -312 332 0
314 312 364 0
314 -312 -364 0
-314 312 -364 0
-314 -312 364 0
316 315 373 0
316 -315 -373 0
-316 315 -373 0
-316 -315 373 0
318 317 336 0
318 -317 -336 0
-318 317 -336 0
-318 -317 336 0
320 319 326 0
320 -319 -326 0
-320 319 -326 0
-320 -319 326 0
323 322 367 0
323 -322 -367 0
-323 322 -367 0
-323 -322 367 0
325 324 354 0
325 -324 -354 0
-325 324 -354 0
-325 -324 354 0
327 326 346 0
327 -326 -346 0
-327 326 -346 0
-327 -326 346 0
329 328 355 0
329 -328 -355 0
-329 328 -355 0
-329 -328 355 0
333 332 345 0
333 -332 -345 0
-333 332 -345 0
-333 -332 345 0
334 332 346 0
334 -332 -346 0
-334 332 -346 0
-334 -332 346 0
335 332 370 0
335 -332 -370 0
-335 332 -370 0
-335 -332 370 0
337 336 360 0
337 -336 -360 0
-337 336 -360 0
-337 -336 360 0
342 341 355 0
342 -341 -355 0
-342 341 -355 0
-342 -341 355 0
343 341 361 0
343 -341 -361 0
-343 341 -361 0
-343 -341 361 0
347 346 364 0
347 -346 -364 0
-347 346 -364 0
-347 -346 364 0
349 348 358 0
349 -348 -358 0
-349 348 -358 0
-349 -348 358 0
350 348 373 0
350 -348 -373 0
-350 348 -373 0
-350 -348 373 0
353 352 372 0
353 -352 -372 0
-353 352 -372 0
-353 -352 372 0
356 355 365 0
356 -355 -365 0
-356 355 -365 0
-356 -355 365 0
